NAME : TW_40_seed_None_id_6
TYPE : CVRPTW
DIMENSION : 11
EDGE_WEIGHT_TYPE : EUC_2D
CAPACITY : 25
SERVICE_TIME : 100
LATE_COEFF : 0
NODE_COORD_SECTION
1	593	458
2	823	21
3	66	629
4	278	542
5	444	446
6	846	77
7	111	600
8	759	116
9	877	528
10	917	270
11	176	986
DEMAND_SECTION
1	0
2	9
3	2
4	8
5	3
6	4
7	2
8	10
9	3
10	5
11	5
TIME_WINDOW_SECTION
1	0	10000
2	623	2574
3	5570	7657
4	8408	10000
5	5894	7836
6	4514	6536
7	417	2443
8	3460	5375
9	6184	8158
10	7485	9509
11	0	1763
DEPOT_SECTION
1
-1
EOF
